20 1 1
21 2 1
20 3 1
21 4 1
20 5 1
21 6 1
23 7 1
24 8 1
23 9 1
24 10 1
23 11 1
24 12 1
26 13 1
27 14 1
26 15 1
27 16 1
26 17 1
27 18 1
19 20 1
19 21 1
19 22 1
22 23 1
22 24 1
22 25 1
25 26 1
25 27 1
25 28 1

31 1 1
34 2 1
32 3 1
35 4 1
33 5 1
36 6 1
31 7 1
34 8 1
32 9 1
35 10 1
33 11 1
36 12 1
31 13 1
34 14 1
32 15 1
35 16 1
33 17 1
36 18 1
28 20 1
29 21 1
30 22 1
28 23 1
29 24 1
30 25 1
28 26 1
29 27 1
30 28 1

1 1 -1
2 2 -1
3 3 -1
4 4 -1
5 5 -1
6 6 -1
7 7 -1
8 8 -1
9 9 -1
10 10 -1
11 11 -1
12 12 -1
13 13 -1
14 14 -1
15 15 -1
16 16 -1
17 17 -1
18 18 -1
37 19 -1
38 20 -1
1 20 1
2 20 1
4 21 1
3 21 1
39 21 -1
5 22 1
40 22 -1
6 22 1
41 23 -1
7 23 1
8 23 1
9 24 1
42 24 -1
10 24 1
43 25 -1
11 25 1
12 25 1
14 26 1
13 26 1
44 26 -1
16 27 1
15 27 1
45 27 -1
18 28 1
17 28 1
46 28 -1

